p cnf 67 212
2 -3 -4 0
-2 3 -4 0
2 3 4 0
-2 -3 4 0
5 -1 0
5 4 0
1 -4 -5 0
-9 7 0
-9 -8 0
-7 8 9 0
-10 -6 0
-10 -9 0
6 9 10 0
-12 -11 0
-12 6 0
11 -6 12 0
14 -12 0
14 -13 0
12 13 -14 0
9 14 -15 0
-9 -14 -15 0
9 -14 15 0
-9 14 15 0
16 -10 0
16 -15 0
10 15 -16 0
17 -5 0
17 16 0
5 -16 -17 0
19 13 0
19 -8 0
-13 8 -19 0
-20 -3 0
-20 19 0
3 -19 20 0
21 -18 0
21 20 0
18 -20 -21 0
-22 14 0
-22 -3 0
-14 3 22 0
-21 -22 -23 0
21 22 -23 0
-21 22 23 0
21 -22 23 0
-3 24 0
3 24 0
-25 -24 0
-25 14 0
24 -14 25 0
27 26 0
27 -13 0
-26 13 -27 0
-9 27 -28 0
9 -27 -28 0
-9 -27 28 0
9 27 28 0
29 -25 0
29 -28 0
25 28 -29 0
-30 -23 0
-30 -29 0
23 29 30 0
33 -31 0
33 -32 0
31 32 -33 0
34 -15 0
34 33 0
15 -33 -34 0
-36 35 0
-36 -9 0
-35 9 36 0
-37 -34 0
-37 36 0
34 -36 37 0
-30 -37 -38 0
30 37 -38 0
-30 37 38 0
30 -37 38 0
39 35 0
39 -26 0
-35 26 -39 0
18 -39 -40 0
-18 39 -40 0
18 39 40 0
-18 -39 40 0
41 -14 0
41 40 0
14 -40 -41 0
-42 15 0
-42 41 0
-15 -41 42 0
38 42 -43 0
-38 -42 -43 0
38 -42 43 0
-38 42 43 0
-13 3 -44 0
13 -3 -44 0
-13 -3 44 0
13 3 44 0
45 7 0
45 -44 0
-7 44 -45 0
-43 45 -46 0
43 -45 -46 0
-43 -45 46 0
43 45 46 0
-47 17 0
-47 46 0
-17 -46 47 0
-48 -6 0
-48 -18 0
6 18 48 0
49 -10 0
49 48 0
10 -48 -49 0
32 -27 -50 0
-32 27 -50 0
32 27 50 0
-32 -27 50 0
51 -4 -52 0
-51 4 -52 0
51 4 52 0
-51 -4 52 0
53 50 0
53 -52 0
-50 52 -53 0
-54 -49 0
-54 53 0
49 -53 54 0
-55 1 0
-55 33 0
-1 -33 55 0
-54 -55 -56 0
54 55 -56 0
-54 55 56 0
54 -55 56 0
-47 -56 -57 0
47 56 -57 0
-47 56 57 0
47 -56 57 0
-8 19 -58 0
8 -19 -58 0
-8 -19 58 0
8 19 58 0
7 -26 -59 0
-7 26 -59 0
7 26 59 0
-7 -26 59 0
-60 58 0
-60 -59 0
-58 59 60 0
-61 33 0
-61 60 0
-33 -60 61 0
62 -9 0
62 -61 0
9 61 -62 0
-63 -12 0
-63 -6 0
12 6 63 0
-62 -63 -64 0
62 63 -64 0
-62 63 64 0
62 -63 64 0
-35 -10 -65 0
35 10 -65 0
-35 10 65 0
35 -10 65 0
64 -65 -66 0
-64 65 -66 0
64 65 66 0
-64 -65 66 0
67 57 0
67 66 0
-57 -66 -67 0
-55 -3 -31 -54 49 0
-20 -8 -17 22 -19 0
10 8 34 0
-1 27 0
36 -8 62 0
-18 -2 57 -45 0
28 -33 31 0
-55 41 -22 62 35 0
-19 37 16 0
-46 -45 0
4 -14 38 45 17 42 0
-25 3 20 49 0
45 36 0
55 -26 -58 -22 8 0
21 2 14 43 0
29 -39 -7 -12 0
-49 -54 -62 3 0
-26 -40 0
12 33 0
24 47 0
67 32 15 -8 0
-49 -36 -47 0
32 45 -16 12 0
-53 -55 -62 0
12 -7 19 -57 -16 18 0
12 -27 0
32 -59 -48 -54 0
64 18 -17 0
-55 -61 0
-56 -59 -44 -9 0
38 -47 43 63 -64 0
59 -11 -15 -21 0
24 31 -63 5 -61 0
29 61 0
-55 -62 -34 17 56 0
67 0
